p cnf 196 1
196 0
w 1 0.65032
w 2 1 0
w 2 -1 1
w 3 2 1
w 3 -2 0
w 4 3 0
w 4 -3 1
w 5 4 1
w 5 -4 0
w 6 5 1
w 6 -5 0
w 7 6 0.694267
w 7 -6 0.326008
w 8 7 0.778463
w 8 -7 0.424608
w 9 8 1
w 9 -8 0
w 10 9 0
w 10 -9 1
w 11 10 1
w 11 -10 0
w 12 11 0
w 12 -11 1
w 13 12 0
w 13 -12 1
w 14 13 0
w 14 -13 1
w 15 1 0
w 15 -1 1
w 16 15 2 1
w 16 15 -2 0
w 16 -15 2 1
w 16 -15 -2 0
w 17 16 3 0
w 17 16 -3 1
w 17 -16 3 1
w 17 -16 -3 0
w 18 17 4 0
w 18 17 -4 1
w 18 -17 4 1
w 18 -17 -4 0
w 19 18 5 0.380123
w 19 18 -5 0.104338
w 19 -18 5 0.577486
w 19 -18 -5 0.222724
w 20 19 6 0
w 20 19 -6 0
w 20 -19 6 0
w 20 -19 -6 1
w 21 20 7 0
w 21 20 -7 0
w 21 -20 7 1
w 21 -20 -7 0
w 22 21 8 1
w 22 21 -8 0
w 22 -21 8 0
w 22 -21 -8 1
w 23 22 9 0
w 23 22 -9 0
w 23 -22 9 1
w 23 -22 -9 0
w 24 23 10 1
w 24 23 -10 1
w 24 -23 10 0
w 24 -23 -10 1
w 25 24 11 1
w 25 24 -11 0
w 25 -24 11 1
w 25 -24 -11 1
w 26 25 12 1
w 26 25 -12 1
w 26 -25 12 0
w 26 -25 -12 0
w 27 26 13 0.582007
w 27 26 -13 0.419573
w 27 -26 13 0.819158
w 27 -26 -13 0.438577
w 28 27 14 1
w 28 27 -14 1
w 28 -27 14 0
w 28 -27 -14 1
w 29 15 0
w 29 -15 1
w 30 29 16 1
w 30 29 -16 1
w 30 -29 16 0
w 30 -29 -16 0
w 31 30 17 1
w 31 30 -17 1
w 31 -30 17 0
w 31 -30 -17 1
w 32 31 18 1
w 32 31 -18 0
w 32 -31 18 1
w 32 -31 -18 1
w 33 32 19 1
w 33 32 -19 1
w 33 -32 19 0
w 33 -32 -19 0
w 34 33 20 0
w 34 33 -20 1
w 34 -33 20 0
w 34 -33 -20 1
w 35 34 21 1
w 35 34 -21 1
w 35 -34 21 0
w 35 -34 -21 0
w 36 35 22 1
w 36 35 -22 0
w 36 -35 22 1
w 36 -35 -22 1
w 37 36 23 0
w 37 36 -23 1
w 37 -36 23 1
w 37 -36 -23 1
w 38 37 24 1
w 38 37 -24 0
w 38 -37 24 0
w 38 -37 -24 1
w 39 38 25 1
w 39 38 -25 0
w 39 -38 25 0
w 39 -38 -25 1
w 40 39 26 1
w 40 39 -26 0
w 40 -39 26 1
w 40 -39 -26 1
w 41 40 27 1
w 41 40 -27 1
w 41 -40 27 0
w 41 -40 -27 1
w 42 41 28 0
w 42 41 -28 1
w 42 -41 28 1
w 42 -41 -28 0
w 43 29 0
w 43 -29 1
w 44 43 30 1
w 44 43 -30 1
w 44 -43 30 1
w 44 -43 -30 0
w 45 44 31 1
w 45 44 -31 0
w 45 -44 31 0
w 45 -44 -31 1
w 46 45 32 1
w 46 45 -32 0
w 46 -45 32 0
w 46 -45 -32 0
w 47 46 33 1
w 47 46 -33 1
w 47 -46 33 0
w 47 -46 -33 0
w 48 47 34 0
w 48 47 -34 0
w 48 -47 34 0
w 48 -47 -34 1
w 49 48 35 0
w 49 48 -35 1
w 49 -48 35 1
w 49 -48 -35 1
w 50 49 36 1
w 50 49 -36 0
w 50 -49 36 0
w 50 -49 -36 0
w 51 50 37 0
w 51 50 -37 0
w 51 -50 37 0
w 51 -50 -37 1
w 52 51 38 1
w 52 51 -38 1
w 52 -51 38 0
w 52 -51 -38 1
w 53 52 39 1
w 53 52 -39 0
w 53 -52 39 1
w 53 -52 -39 1
w 54 53 40 1
w 54 53 -40 1
w 54 -53 40 1
w 54 -53 -40 0
w 55 54 41 0
w 55 54 -41 1
w 55 -54 41 0
w 55 -54 -41 0
w 56 55 42 1
w 56 55 -42 0
w 56 -55 42 1
w 56 -55 -42 1
w 57 43 1
w 57 -43 0
w 58 57 44 0
w 58 57 -44 0
w 58 -57 44 1
w 58 -57 -44 1
w 59 58 45 1
w 59 58 -45 0
w 59 -58 45 0
w 59 -58 -45 0
w 60 59 46 1
w 60 59 -46 1
w 60 -59 46 0
w 60 -59 -46 1
w 61 60 47 1
w 61 60 -47 1
w 61 -60 47 1
w 61 -60 -47 0
w 62 61 48 1
w 62 61 -48 1
w 62 -61 48 0
w 62 -61 -48 0
w 63 62 49 0.259997
w 63 62 -49 0.505974
w 63 -62 49 0.0417448
w 63 -62 -49 0.812441
w 64 63 50 1
w 64 63 -50 0
w 64 -63 50 1
w 64 -63 -50 1
w 65 64 51 0
w 65 64 -51 1
w 65 -64 51 0
w 65 -64 -51 0
w 66 65 52 1
w 66 65 -52 0
w 66 -65 52 0
w 66 -65 -52 0
w 67 66 53 1
w 67 66 -53 1
w 67 -66 53 0
w 67 -66 -53 1
w 68 67 54 0
w 68 67 -54 0
w 68 -67 54 0
w 68 -67 -54 1
w 69 68 55 0
w 69 68 -55 1
w 69 -68 55 0
w 69 -68 -55 0
w 70 69 56 0
w 70 69 -56 0
w 70 -69 56 0
w 70 -69 -56 1
w 71 57 0
w 71 -57 1
w 72 71 58 0.409303
w 72 71 -58 0.160189
w 72 -71 58 0.921238
w 72 -71 -58 0.919685
w 73 72 59 0
w 73 72 -59 0
w 73 -72 59 1
w 73 -72 -59 1
w 74 73 60 0
w 74 73 -60 1
w 74 -73 60 0
w 74 -73 -60 0
w 75 74 61 1
w 75 74 -61 1
w 75 -74 61 0
w 75 -74 -61 1
w 76 75 62 0
w 76 75 -62 0
w 76 -75 62 1
w 76 -75 -62 0
w 77 76 63 1
w 77 76 -63 0
w 77 -76 63 0
w 77 -76 -63 1
w 78 77 64 1
w 78 77 -64 0
w 78 -77 64 1
w 78 -77 -64 1
w 79 78 65 1
w 79 78 -65 1
w 79 -78 65 0
w 79 -78 -65 1
w 80 79 66 1
w 80 79 -66 1
w 80 -79 66 1
w 80 -79 -66 0
w 81 80 67 0
w 81 80 -67 1
w 81 -80 67 1
w 81 -80 -67 1
w 82 81 68 1
w 82 81 -68 0
w 82 -81 68 0
w 82 -81 -68 1
w 83 82 69 1
w 83 82 -69 0
w 83 -82 69 1
w 83 -82 -69 1
w 84 83 70 1
w 84 83 -70 0
w 84 -83 70 1
w 84 -83 -70 0
w 85 71 1
w 85 -71 0
w 86 85 72 1
w 86 85 -72 1
w 86 -85 72 0
w 86 -85 -72 0
w 87 86 73 1
w 87 86 -73 0
w 87 -86 73 0
w 87 -86 -73 1
w 88 87 74 1
w 88 87 -74 1
w 88 -87 74 1
w 88 -87 -74 0
w 89 88 75 1
w 89 88 -75 1
w 89 -88 75 0
w 89 -88 -75 0
w 90 89 76 1
w 90 89 -76 1
w 90 -89 76 0
w 90 -89 -76 1
w 91 90 77 1
w 91 90 -77 0
w 91 -90 77 1
w 91 -90 -77 0
w 92 91 78 0
w 92 91 -78 1
w 92 -91 78 0
w 92 -91 -78 1
w 93 92 79 0
w 93 92 -79 1
w 93 -92 79 0
w 93 -92 -79 1
w 94 93 80 1
w 94 93 -80 0
w 94 -93 80 0
w 94 -93 -80 1
w 95 94 81 1
w 95 94 -81 0
w 95 -94 81 1
w 95 -94 -81 0
w 96 95 82 0.492517
w 96 95 -82 0.291784
w 96 -95 82 0.330798
w 96 -95 -82 0.766893
w 97 96 83 1
w 97 96 -83 1
w 97 -96 83 0
w 97 -96 -83 0
w 98 97 84 0
w 98 97 -84 1
w 98 -97 84 0
w 98 -97 -84 1
w 99 85 1
w 99 -85 0
w 100 99 86 1
w 100 99 -86 1
w 100 -99 86 0
w 100 -99 -86 1
w 101 100 87 1
w 101 100 -87 1
w 101 -100 87 0
w 101 -100 -87 0
w 102 101 88 1
w 102 101 -88 0
w 102 -101 88 1
w 102 -101 -88 1
w 103 102 89 0
w 103 102 -89 1
w 103 -102 89 0
w 103 -102 -89 0
w 104 103 90 1
w 104 103 -90 1
w 104 -103 90 0
w 104 -103 -90 0
w 105 104 91 1
w 105 104 -91 1
w 105 -104 91 0
w 105 -104 -91 1
w 106 105 92 1
w 106 105 -92 1
w 106 -105 92 1
w 106 -105 -92 0
w 107 106 93 0
w 107 106 -93 1
w 107 -106 93 1
w 107 -106 -93 1
w 108 107 94 0
w 108 107 -94 0
w 108 -107 94 1
w 108 -107 -94 1
w 109 108 95 1
w 109 108 -95 0
w 109 -108 95 0
w 109 -108 -95 0
w 110 109 96 0
w 110 109 -96 1
w 110 -109 96 1
w 110 -109 -96 0
w 111 110 97 0
w 111 110 -97 1
w 111 -110 97 1
w 111 -110 -97 0
w 112 111 98 1
w 112 111 -98 1
w 112 -111 98 1
w 112 -111 -98 0
w 113 99 0
w 113 -99 1
w 114 113 100 0
w 114 113 -100 1
w 114 -113 100 1
w 114 -113 -100 0
w 115 114 101 0
w 115 114 -101 0
w 115 -114 101 1
w 115 -114 -101 0
w 116 115 102 0
w 116 115 -102 1
w 116 -115 102 1
w 116 -115 -102 1
w 117 116 103 0
w 117 116 -103 1
w 117 -116 103 0
w 117 -116 -103 1
w 118 117 104 0
w 118 117 -104 1
w 118 -117 104 0
w 118 -117 -104 1
w 119 118 105 1
w 119 118 -105 0
w 119 -118 105 1
w 119 -118 -105 1
w 120 119 106 0
w 120 119 -106 1
w 120 -119 106 0
w 120 -119 -106 0
w 121 120 107 0
w 121 120 -107 0
w 121 -120 107 1
w 121 -120 -107 1
w 122 121 108 0
w 122 121 -108 0
w 122 -121 108 1
w 122 -121 -108 0
w 123 122 109 1
w 123 122 -109 0
w 123 -122 109 0
w 123 -122 -109 1
w 124 123 110 1
w 124 123 -110 0
w 124 -123 110 1
w 124 -123 -110 0
w 125 124 111 0
w 125 124 -111 1
w 125 -124 111 1
w 125 -124 -111 1
w 126 125 112 1
w 126 125 -112 1
w 126 -125 112 0
w 126 -125 -112 0
w 127 113 0
w 127 -113 1
w 128 127 114 1
w 128 127 -114 0
w 128 -127 114 1
w 128 -127 -114 1
w 129 128 115 1
w 129 128 -115 0
w 129 -128 115 1
w 129 -128 -115 0
w 130 129 116 0
w 130 129 -116 1
w 130 -129 116 1
w 130 -129 -116 1
w 131 130 117 0
w 131 130 -117 1
w 131 -130 117 1
w 131 -130 -117 0
w 132 131 118 1
w 132 131 -118 1
w 132 -131 118 0
w 132 -131 -118 0
w 133 132 119 0
w 133 132 -119 0
w 133 -132 119 1
w 133 -132 -119 1
w 134 133 120 1
w 134 133 -120 0
w 134 -133 120 0
w 134 -133 -120 0
w 135 134 121 0
w 135 134 -121 1
w 135 -134 121 0
w 135 -134 -121 1
w 136 135 122 0.889691
w 136 135 -122 0.630523
w 136 -135 122 0.72187
w 136 -135 -122 0.760534
w 137 136 123 1
w 137 136 -123 1
w 137 -136 123 0
w 137 -136 -123 0
w 138 137 124 0
w 138 137 -124 1
w 138 -137 124 0
w 138 -137 -124 1
w 139 138 125 0
w 139 138 -125 1
w 139 -138 125 0
w 139 -138 -125 0
w 140 139 126 0.816218
w 140 139 -126 0.516424
w 140 -139 126 0.62661
w 140 -139 -126 0.829523
w 141 127 1
w 141 -127 0
w 142 141 128 1
w 142 141 -128 1
w 142 -141 128 1
w 142 -141 -128 0
w 143 142 129 0
w 143 142 -129 0
w 143 -142 129 1
w 143 -142 -129 1
w 144 143 130 1
w 144 143 -130 0
w 144 -143 130 0
w 144 -143 -130 0
w 145 144 131 0
w 145 144 -131 1
w 145 -144 131 1
w 145 -144 -131 0
w 146 145 132 0
w 146 145 -132 0
w 146 -145 132 1
w 146 -145 -132 1
w 147 146 133 0.429412
w 147 146 -133 0.853527
w 147 -146 133 0.658037
w 147 -146 -133 0.191017
w 148 147 134 0
w 148 147 -134 0
w 148 -147 134 1
w 148 -147 -134 1
w 149 148 135 0
w 149 148 -135 1
w 149 -148 135 1
w 149 -148 -135 1
w 150 149 136 0
w 150 149 -136 1
w 150 -149 136 1
w 150 -149 -136 0
w 151 150 137 0.215973
w 151 150 -137 0.0638689
w 151 -150 137 0.717266
w 151 -150 -137 0.2423
w 152 151 138 0
w 152 151 -138 0
w 152 -151 138 1
w 152 -151 -138 1
w 153 152 139 0
w 153 152 -139 1
w 153 -152 139 1
w 153 -152 -139 1
w 154 153 140 0.53954
w 154 153 -140 0.733282
w 154 -153 140 0.0348329
w 154 -153 -140 0.908998
w 155 141 1
w 155 -141 0
w 156 155 142 0
w 156 155 -142 0
w 156 -155 142 1
w 156 -155 -142 1
w 157 156 143 0
w 157 156 -143 0
w 157 -156 143 0
w 157 -156 -143 1
w 158 157 144 0
w 158 157 -144 1
w 158 -157 144 0
w 158 -157 -144 1
w 159 158 145 0
w 159 158 -145 0
w 159 -158 145 1
w 159 -158 -145 0
w 160 159 146 0
w 160 159 -146 1
w 160 -159 146 0
w 160 -159 -146 1
w 161 160 147 1
w 161 160 -147 1
w 161 -160 147 1
w 161 -160 -147 0
w 162 161 148 0
w 162 161 -148 0
w 162 -161 148 1
w 162 -161 -148 1
w 163 162 149 0.757646
w 163 162 -149 0.629416
w 163 -162 149 0.416895
w 163 -162 -149 0.861486
w 164 163 150 1
w 164 163 -150 1
w 164 -163 150 1
w 164 -163 -150 0
w 165 164 151 0.958505
w 165 164 -151 0.250384
w 165 -164 151 0.127685
w 165 -164 -151 0.659284
w 166 165 152 0
w 166 165 -152 0
w 166 -165 152 1
w 166 -165 -152 0
w 167 166 153 1
w 167 166 -153 0
w 167 -166 153 1
w 167 -166 -153 0
w 168 167 154 0
w 168 167 -154 0
w 168 -167 154 0
w 168 -167 -154 1
w 169 155 1
w 169 -155 0
w 170 169 156 1
w 170 169 -156 0
w 170 -169 156 0
w 170 -169 -156 0
w 171 170 157 0
w 171 170 -157 1
w 171 -170 157 1
w 171 -170 -157 1
w 172 171 158 1
w 172 171 -158 0
w 172 -171 158 0
w 172 -171 -158 1
w 173 172 159 0
w 173 172 -159 0
w 173 -172 159 0
w 173 -172 -159 1
w 174 173 160 1
w 174 173 -160 1
w 174 -173 160 0
w 174 -173 -160 1
w 175 174 161 0
w 175 174 -161 1
w 175 -174 161 1
w 175 -174 -161 1
w 176 175 162 1
w 176 175 -162 1
w 176 -175 162 0
w 176 -175 -162 1
w 177 176 163 0.00669936
w 177 176 -163 0.727476
w 177 -176 163 0.974041
w 177 -176 -163 0.598991
w 178 177 164 0
w 178 177 -164 1
w 178 -177 164 1
w 178 -177 -164 0
w 179 178 165 0
w 179 178 -165 0
w 179 -178 165 1
w 179 -178 -165 1
w 180 179 166 1
w 180 179 -166 0
w 180 -179 166 0
w 180 -179 -166 1
w 181 180 167 0
w 181 180 -167 1
w 181 -180 167 1
w 181 -180 -167 1
w 182 181 168 1
w 182 181 -168 0
w 182 -181 168 1
w 182 -181 -168 0
w 183 169 1
w 183 -169 0
w 184 183 170 0
w 184 183 -170 1
w 184 -183 170 0
w 184 -183 -170 1
w 185 184 171 1
w 185 184 -171 0
w 185 -184 171 0
w 185 -184 -171 0
w 186 185 172 0
w 186 185 -172 1
w 186 -185 172 0
w 186 -185 -172 0
w 187 186 173 0
w 187 186 -173 0
w 187 -186 173 1
w 187 -186 -173 0
w 188 187 174 0
w 188 187 -174 1
w 188 -187 174 0
w 188 -187 -174 0
w 189 188 175 0.829748
w 189 188 -175 0.794264
w 189 -188 175 0.935493
w 189 -188 -175 0.0194047
w 190 189 176 0
w 190 189 -176 1
w 190 -189 176 0
w 190 -189 -176 0
w 191 190 177 0
w 191 190 -177 1
w 191 -190 177 0
w 191 -190 -177 0
w 192 191 178 0
w 192 191 -178 0
w 192 -191 178 1
w 192 -191 -178 0
w 193 192 179 1
w 193 192 -179 0
w 193 -192 179 1
w 193 -192 -179 1
w 194 193 180 0.735336
w 194 193 -180 0.760498
w 194 -193 180 0.235524
w 194 -193 -180 0.646458
w 195 194 181 0
w 195 194 -181 1
w 195 -194 181 0
w 195 -194 -181 1
w 196 195 182 0
w 196 195 -182 0
w 196 -195 182 0
w 196 -195 -182 1